(declare-const n Int)
(declare-const s1!0 Int)
(declare-const s1!1 Int)
(declare-const s1!2 Int)
(declare-const s1!3 Int)
(declare-const s1!4 Int)
(declare-const s1!5 Int)
(declare-const s1!6 Int)
(declare-const s1!7 Int)
(declare-const s1!8 Int)
(declare-const s1!9 Int)
(declare-const s1 Int)
(declare-const s2!0 Int)
(declare-const s2!1 Int)
(declare-const s2!2 Int)
(declare-const s2!3 Int)
(declare-const s2!4 Int)
(declare-const s2!5 Int)
(declare-const s2!6 Int)
(declare-const s2!7 Int)
(declare-const s2!8 Int)
(declare-const s2!9 Int)
(declare-const s2 Int)
(declare-const s3!0 Int)
(declare-const s3!1 Int)
(declare-const s3!2 Int)
(declare-const s3!3 Int)
(declare-const s3!4 Int)
(declare-const s3!5 Int)
(declare-const s3!6 Int)
(declare-const s3!7 Int)
(declare-const s3!8 Int)
(declare-const s3!9 Int)
(declare-const s3 Int)
(declare-const s4!0 Int)
(declare-const s4!1 Int)
(declare-const s4!2 Int)
(declare-const s4!3 Int)
(declare-const s4!4 Int)
(declare-const s4!5 Int)
(declare-const s4!6 Int)
(declare-const s4!7 Int)
(declare-const s4!8 Int)
(declare-const s4!9 Int)
(declare-const s4 Int)
(declare-const s5!0 Int)
(declare-const s5!1 Int)
(declare-const s5!2 Int)
(declare-const s5!3 Int)
(declare-const s5!4 Int)
(declare-const s5!5 Int)
(declare-const s5!6 Int)
(declare-const s5!7 Int)
(declare-const s5!8 Int)
(declare-const s5!9 Int)
(declare-const s5 Int)
(declare-const s6!0 Int)
(declare-const s6!1 Int)
(declare-const s6!2 Int)
(declare-const s6!3 Int)
(declare-const s6!4 Int)
(declare-const s6!5 Int)
(declare-const s6!6 Int)
(declare-const s6!7 Int)
(declare-const s6!8 Int)
(declare-const s6!9 Int)
(declare-const s6 Int)
(declare-const s7!0 Int)
(declare-const s7!1 Int)
(declare-const s7!2 Int)
(declare-const s7!3 Int)
(declare-const s7!4 Int)
(declare-const s7!5 Int)
(declare-const s7!6 Int)
(declare-const s7!7 Int)
(declare-const s7!8 Int)
(declare-const s7!9 Int)
(declare-const s7 Int)
(declare-const s8!0 Int)
(declare-const s8!1 Int)
(declare-const s8!2 Int)
(declare-const s8!3 Int)
(declare-const s8!4 Int)
(declare-const s8!5 Int)
(declare-const s8!6 Int)
(declare-const s8!7 Int)
(declare-const s8!8 Int)
(declare-const s8!9 Int)
(declare-const s8 Int)
(declare-const s9!0 Int)
(declare-const s9!1 Int)
(declare-const s9!2 Int)
(declare-const s9!3 Int)
(declare-const s9!4 Int)
(declare-const s9!5 Int)
(declare-const s9!6 Int)
(declare-const s9!7 Int)
(declare-const s9!8 Int)
(declare-const s9!9 Int)
(declare-const s9 Int)
(declare-const s10!0 Int)
(declare-const s10!1 Int)
(declare-const s10!2 Int)
(declare-const s10!3 Int)
(declare-const s10!4 Int)
(declare-const s10!5 Int)
(declare-const s10!6 Int)
(declare-const s10!7 Int)
(declare-const s10!8 Int)
(declare-const s10!9 Int)
(declare-const s10 Int)
(assert (= s10 (ite (> s10!0 0) 0 (ite (> s10!1 0) 1 (ite (> s10!2 0) 2 (ite (> s10!3 0) 3 (ite (> s10!4 0) 4 (ite (> s10!5 0) 5 (ite (> s10!6 0) 6 (ite (> s10!7 0) 7 (ite (> s10!8 0) 8 9))))))) ) )))
(assert (= s9 (ite (> s9!0 0) 0 (ite (> s9!1 0) 1 (ite (> s9!2 0) 2 (ite (> s9!3 0) 3 (ite (> s9!4 0) 4 (ite (> s9!5 0) 5 (ite (> s9!6 0) 6 (ite (> s9!7 0) 7 (ite (> s9!8 0) 8 9))))))) ) )))
(assert (= s8 (ite (> s8!0 0) 0 (ite (> s8!1 0) 1 (ite (> s8!2 0) 2 (ite (> s8!3 0) 3 (ite (> s8!4 0) 4 (ite (> s8!5 0) 5 (ite (> s8!6 0) 6 (ite (> s8!7 0) 7 (ite (> s8!8 0) 8 9))))))) ) )))
(assert (= s7 (ite (> s7!0 0) 0 (ite (> s7!1 0) 1 (ite (> s7!2 0) 2 (ite (> s7!3 0) 3 (ite (> s7!4 0) 4 (ite (> s7!5 0) 5 (ite (> s7!6 0) 6 (ite (> s7!7 0) 7 (ite (> s7!8 0) 8 9))))))) ) )))
(assert (= s6 (ite (> s6!0 0) 0 (ite (> s6!1 0) 1 (ite (> s6!2 0) 2 (ite (> s6!3 0) 3 (ite (> s6!4 0) 4 (ite (> s6!5 0) 5 (ite (> s6!6 0) 6 (ite (> s6!7 0) 7 (ite (> s6!8 0) 8 9))))))) ) )))
(assert (= s5 (ite (> s5!0 0) 0 (ite (> s5!1 0) 1 (ite (> s5!2 0) 2 (ite (> s5!3 0) 3 (ite (> s5!4 0) 4 (ite (> s5!5 0) 5 (ite (> s5!6 0) 6 (ite (> s5!7 0) 7 (ite (> s5!8 0) 8 9))))))) ) )))
(assert (= s4 (ite (> s4!0 0) 0 (ite (> s4!1 0) 1 (ite (> s4!2 0) 2 (ite (> s4!3 0) 3 (ite (> s4!4 0) 4 (ite (> s4!5 0) 5 (ite (> s4!6 0) 6 (ite (> s4!7 0) 7 (ite (> s4!8 0) 8 9))))))) ) )))
(assert (= s3 (ite (> s3!0 0) 0 (ite (> s3!1 0) 1 (ite (> s3!2 0) 2 (ite (> s3!3 0) 3 (ite (> s3!4 0) 4 (ite (> s3!5 0) 5 (ite (> s3!6 0) 6 (ite (> s3!7 0) 7 (ite (> s3!8 0) 8 9))))))) ) )))
(assert (= s2 (ite (> s2!0 0) 0 (ite (> s2!1 0) 1 (ite (> s2!2 0) 2 (ite (> s2!3 0) 3 (ite (> s2!4 0) 4 (ite (> s2!5 0) 5 (ite (> s2!6 0) 6 (ite (> s2!7 0) 7 (ite (> s2!8 0) 8 9))))))) ) )))
(assert (= s1 (ite (> s1!0 0) 0 (ite (> s1!1 0) 1 (ite (> s1!2 0) 2 (ite (> s1!3 0) 3 (ite (> s1!4 0) 4 (ite (> s1!5 0) 5 (ite (> s1!6 0) 6 (ite (> s1!7 0) 7 (ite (> s1!8 0) 8 9))))))) ) )))


(assert (= n (+(* 10(+(* 10(+(* 10(+(* 10(+(* 10(+(* 10(+(* 10 (+(* 10 (+ (* 10 s1) s2)) s3))s4)) s5)) s6))s7))s8))s9))s10)))
(assert (> n 42))

(check-sat)
(get-model)
